NAME: output/a280.tsp_ApxTspTour.tour
TYPE: TOUR
DIMENSION: 281
TOUR_SECTION
1
280
2
240
241
242
243
244
245
3
279
4
277
276
6
5
7
8
9
10
11
12
13
14
24
23
25
22
26
27
28
29
31
30
125
124
123
122
121
120
119
157
158
159
160
175
161
162
163
164
165
166
167
168
169
101
100
99
98
93
92
91
90
89
81
79
76
75
74
73
72
71
70
67
69
68
77
78
80
82
88
83
84
85
65
64
63
66
86
116
62
115
114
111
110
108
104
103
105
106
107
113
117
118
87
112
109
94
95
96
97
102
170
171
172
173
174
126
127
128
21
20
19
18
17
135
134
270
136
137
138
139
140
141
142
143
144
145
199
198
197
193
194
192
191
190
186
187
185
184
183
182
181
176
177
151
152
156
153
155
154
178
179
180
189
188
195
196
201
200
202
203
204
205
206
207
208
209
227
226
225
224
223
222
219
218
215
214
211
213
216
217
220
221
228
229
231
232
233
234
235
236
237
238
239
246
230
252
251
255
249
250
254
257
258
259
260
261
262
263
264
256
253
210
212
146
147
265
148
149
150
266
267
268
269
133
132
131
130
129
32
33
34
35
36
38
37
39
49
48
47
46
45
44
57
58
59
60
43
42
41
40
61
56
55
54
53
50
51
52
15
275
274
273
272
271
16
278
247
248
1
-1
